(set-info :source |printed by MathSAT|)
(declare-fun call_excludes4.excludes.next () Bool)
(declare-fun call_mesi.invalid_me () Int)
(declare-fun shared_me () Int)
(declare-fun call_mesi.ite18 () Int)
(declare-fun call_mesi.ite5 () Int)
(declare-fun call_mesi.ite30.next () Int)
(declare-fun call_mesi.ite24 () Int)
(declare-fun call_mesi.flby.next () Int)
(declare-fun call_mesi.ite9 () Int)
(declare-fun call_mesi.flby4 () Int)
(declare-fun call_mesi.ite2.next () Int)
(declare-fun call_mesi.ite31.next () Int)
(declare-fun call_mesi.ite15.next () Int)
(declare-fun call_mesi.ite16.next () Int)
(declare-fun call_mesi.ite8 () Int)
(declare-fun param_etat_me2 () Bool)
(declare-fun call_mesi.ite22.next () Int)
(declare-fun call_mesi.ite30 () Int)
(declare-fun call_mesi.garde_me2.next () Bool)
(declare-fun call_mesi.ite10 () Int)
(declare-fun param_etat_me4.next () Bool)
(declare-fun _OK_.next () Bool)
(declare-fun call_mesi.exclusive_me.next () Int)
(declare-fun call_mesi.ite23.next () Int)
(declare-fun call_mesi.ite23 () Int)
(declare-fun call_mesi.ite21 () Int)
(declare-fun call_mesi.garde_me4.next () Bool)
(declare-fun call_mesi.ite15 () Int)
(declare-fun call_mesi.ite26.next () Int)
(declare-fun call_mesi.ite28.next () Int)
(declare-fun call_mesi.ite22 () Int)
(declare-fun call_mesi.ite12.next () Int)
(declare-fun call_excludes4.excludes () Bool)
(declare-fun call_mesi.shared_me () Int)
(declare-fun param_etat_me3.next () Bool)
(declare-fun call_mesi.modified_me () Int)
(declare-fun call_mesi.ite17.next () Int)
(declare-fun call_mesi.ite21.next () Int)
(declare-fun call_mesi.ite7.next () Int)
(declare-fun call_mesi.ite31 () Int)
(declare-fun call_mesi.garde_me3.next () Bool)
(declare-fun call_mesi.ite7 () Int)
(declare-fun param_etat_me3 () Bool)
(declare-fun call_mesi.ite20.next () Int)
(declare-fun call_mesi.ite25.next () Int)
(declare-fun call_Sofar.flby () Bool)
(declare-fun call_mesi.ite14.next () Int)
(declare-fun call_mesi.ite19.next () Int)
(declare-fun call_Sofar.Sofar.next () Bool)
(declare-fun env () Bool)
(declare-fun call_mesi.flby3.next () Int)
(declare-fun call_mesi.ite13 () Int)
(declare-fun _OK_ () Bool)
(declare-fun call_mesi.ite2 () Int)
(declare-fun call_mesi.ite13.next () Int)
(declare-fun invalid_me () Int)
(declare-fun call_mesi.ite25 () Int)
(declare-fun exclusive_me () Int)
(declare-fun call_mesi.flby2 () Int)
(declare-fun param_etat_me2.next () Bool)
(declare-fun call_mesi.ite6.next () Int)
(declare-fun call_mesi.ite.next () Int)
(declare-fun shared_me.next () Int)
(declare-fun call_mesi.ite32.next () Int)
(declare-fun call_mesi.ite16 () Int)
(declare-fun call_mesi.ite8.next () Int)
(declare-fun call_mesi.ite9.next () Int)
(declare-fun call_mesi.ite19 () Int)
(declare-fun call_mesi.garde_me1.next () Bool)
(declare-fun call_Sofar.Sofar () Bool)
(declare-fun call_mesi.ite18.next () Int)
(declare-fun call_mesi.flby2.next () Int)
(declare-fun modified_me.next () Int)
(declare-fun call_mesi.ite27.next () Int)
(declare-fun param_etat_me1 () Bool)
(declare-fun env.next () Bool)
(declare-fun call_mesi.ite5.next () Int)
(declare-fun call_mesi.ite3 () Int)
(declare-fun call_mesi.ite17 () Int)
(declare-fun call_mesi.ite14 () Int)
(declare-fun call_mesi.shared_me.next () Int)
(declare-fun call_mesi.ite11.next () Int)
(declare-fun call_mesi.ite32 () Int)
(declare-fun call_mesi.flby () Int)
(declare-fun modified_me () Int)
(declare-fun call_mesi.ite29.next () Int)
(declare-fun call_mesi.exclusive_me () Int)
(declare-fun call_mesi.ite27 () Int)
(declare-fun call_mesi.ite24.next () Int)
(declare-fun invalid_me.next () Int)
(declare-fun call_mesi.ite26 () Int)
(declare-fun call_Sofar.flby.next () Bool)
(declare-fun call_mesi.ite10.next () Int)
(declare-fun exclusive_me.next () Int)
(declare-fun call_mesi.ite () Int)
(declare-fun param_etat_me4 () Bool)
(declare-fun param_etat_me1.next () Bool)
(declare-fun call_mesi.flby3 () Int)
(declare-fun call_mesi.ite6 () Int)
(declare-fun call_mesi.ite3.next () Int)
(declare-fun call_mesi.ite29 () Int)
(declare-fun call_mesi.invalid_me.next () Int)
(declare-fun call_mesi.flby4.next () Int)
(declare-fun call_mesi.modified_me.next () Int)
(declare-fun call_mesi.ite11 () Int)
(declare-fun call_mesi.ite4.next () Int)
(define-fun .def_1141 () Bool (= call_Sofar.flby.next call_Sofar.Sofar.next))
(define-fun .def_1136 () Bool (and param_etat_me4.next param_etat_me3.next))
(define-fun .def_1131 () Bool (and param_etat_me1.next param_etat_me2.next))
(define-fun .def_1130 () Bool (and param_etat_me3.next param_etat_me1.next))
(define-fun .def_1132 () Bool (or .def_1130 .def_1131))
(define-fun .def_1129 () Bool (and param_etat_me4.next param_etat_me1.next))
(define-fun .def_1133 () Bool (or .def_1129 .def_1132))
(define-fun .def_1128 () Bool (and param_etat_me3.next param_etat_me2.next))
(define-fun .def_1134 () Bool (or .def_1128 .def_1133))
(define-fun .def_1127 () Bool (and param_etat_me4.next param_etat_me2.next))
(define-fun .def_1135 () Bool (or .def_1127 .def_1134))
(define-fun .def_1137 () Bool (or .def_1135 .def_1136))
(define-fun .def_1138 () Bool (not .def_1137))
(define-fun .def_1139 () Bool (= call_excludes4.excludes.next .def_1138))
(define-fun .def_1125 () Bool (= call_mesi.flby4.next call_mesi.invalid_me.next))
(define-fun .def_1123 () Bool (= call_mesi.flby3.next call_mesi.shared_me.next))
(define-fun .def_1121 () Bool (= call_mesi.flby2.next call_mesi.exclusive_me.next))
(define-fun .def_1119 () Bool (= call_mesi.flby.next call_mesi.modified_me.next))
(define-fun .def_1115 () Bool (= call_mesi.ite30.next call_mesi.ite31.next))
(define-fun .def_1116 () Bool (or param_etat_me2.next .def_1115))
(define-fun .def_1112 () Bool (= call_mesi.ite26.next call_mesi.ite31.next))
(define-fun .def_1097 () Bool (not param_etat_me2.next))
(define-fun .def_1113 () Bool (or .def_1097 .def_1112))
(define-fun .def_1109 () Bool (= call_mesi.ite22.next call_mesi.ite23.next))
(define-fun .def_1110 () Bool (or param_etat_me2.next .def_1109))
(define-fun .def_1106 () Bool (= call_mesi.ite18.next call_mesi.ite23.next))
(define-fun .def_1107 () Bool (or .def_1097 .def_1106))
(define-fun .def_1103 () Bool (= call_mesi.ite14.next call_mesi.ite15.next))
(define-fun .def_1104 () Bool (or param_etat_me2.next .def_1103))
(define-fun .def_1100 () Bool (= call_mesi.ite10.next call_mesi.ite15.next))
(define-fun .def_1101 () Bool (or .def_1097 .def_1100))
(define-fun .def_1096 () Bool (= call_mesi.ite2.next call_mesi.ite7.next))
(define-fun .def_1098 () Bool (or .def_1096 .def_1097))
(define-fun .def_1093 () Bool (= call_mesi.ite6.next call_mesi.ite7.next))
(define-fun .def_1095 () Bool (or .def_1093 param_etat_me2.next))
(define-fun .def_1099 () Bool (and .def_1095 .def_1098))
(define-fun .def_1102 () Bool (and .def_1099 .def_1101))
(define-fun .def_1105 () Bool (and .def_1102 .def_1104))
(define-fun .def_1108 () Bool (and .def_1105 .def_1107))
(define-fun .def_1111 () Bool (and .def_1108 .def_1110))
(define-fun .def_1114 () Bool (and .def_1111 .def_1113))
(define-fun .def_1117 () Bool (and .def_1114 .def_1116))
(define-fun .def_1089 () Bool (= call_mesi.ite32.next call_mesi.ite31.next))
(define-fun .def_1090 () Bool (or param_etat_me1.next .def_1089))
(define-fun .def_1085 () Bool (= call_mesi.ite25.next call_mesi.ite32.next))
(define-fun .def_1068 () Bool (not param_etat_me1.next))
(define-fun .def_1086 () Bool (or .def_1068 .def_1085))
(define-fun .def_1082 () Bool (= call_mesi.ite24.next call_mesi.ite23.next))
(define-fun .def_1083 () Bool (or param_etat_me1.next .def_1082))
(define-fun .def_1078 () Bool (= call_mesi.ite17.next call_mesi.ite24.next))
(define-fun .def_1079 () Bool (or .def_1068 .def_1078))
(define-fun .def_1075 () Bool (= call_mesi.ite16.next call_mesi.ite15.next))
(define-fun .def_1076 () Bool (or param_etat_me1.next .def_1075))
(define-fun .def_1071 () Bool (= call_mesi.ite9.next call_mesi.ite16.next))
(define-fun .def_1072 () Bool (or .def_1068 .def_1071))
(define-fun .def_1067 () Bool (= call_mesi.ite.next call_mesi.ite8.next))
(define-fun .def_1069 () Bool (or .def_1067 .def_1068))
(define-fun .def_1064 () Bool (= call_mesi.ite8.next call_mesi.ite7.next))
(define-fun .def_1066 () Bool (or .def_1064 param_etat_me1.next))
(define-fun .def_1070 () Bool (and .def_1066 .def_1069))
(define-fun .def_1073 () Bool (and .def_1070 .def_1072))
(define-fun .def_1077 () Bool (and .def_1073 .def_1076))
(define-fun .def_1080 () Bool (and .def_1077 .def_1079))
(define-fun .def_1084 () Bool (and .def_1080 .def_1083))
(define-fun .def_1087 () Bool (and .def_1084 .def_1086))
(define-fun .def_1091 () Bool (and .def_1087 .def_1090))
(define-fun .def_1061 () Bool (= env.next call_Sofar.Sofar.next))
(define-fun .def_1058 () Bool (= invalid_me.next call_mesi.invalid_me.next))
(define-fun .def_1055 () Bool (= shared_me.next call_mesi.shared_me.next))
(define-fun .def_1051 () Bool (= exclusive_me.next call_mesi.exclusive_me.next))
(define-fun .def_1047 () Bool (= modified_me.next call_mesi.modified_me.next))
(define-fun .def_1041 () Bool (= call_mesi.ite29.next call_mesi.ite30.next))
(define-fun .def_1042 () Bool (or param_etat_me3.next .def_1041))
(define-fun .def_1038 () Bool (= call_mesi.ite27.next call_mesi.ite30.next))
(define-fun .def_1020 () Bool (not param_etat_me3.next))
(define-fun .def_1039 () Bool (or .def_1020 .def_1038))
(define-fun .def_1034 () Bool (= call_mesi.ite21.next call_mesi.ite22.next))
(define-fun .def_1035 () Bool (or param_etat_me3.next .def_1034))
(define-fun .def_1031 () Bool (= call_mesi.ite19.next call_mesi.ite22.next))
(define-fun .def_1032 () Bool (or .def_1020 .def_1031))
(define-fun .def_1027 () Bool (= call_mesi.ite13.next call_mesi.ite14.next))
(define-fun .def_1028 () Bool (or param_etat_me3.next .def_1027))
(define-fun .def_1024 () Bool (= call_mesi.ite11.next call_mesi.ite14.next))
(define-fun .def_1025 () Bool (or .def_1020 .def_1024))
(define-fun .def_1019 () Bool (= call_mesi.ite3.next call_mesi.ite6.next))
(define-fun .def_1021 () Bool (or .def_1019 .def_1020))
(define-fun .def_1016 () Bool (= call_mesi.ite5.next call_mesi.ite6.next))
(define-fun .def_1018 () Bool (or .def_1016 param_etat_me3.next))
(define-fun .def_1022 () Bool (and .def_1018 .def_1021))
(define-fun .def_1026 () Bool (and .def_1022 .def_1025))
(define-fun .def_1029 () Bool (and .def_1026 .def_1028))
(define-fun .def_1033 () Bool (and .def_1029 .def_1032))
(define-fun .def_1036 () Bool (and .def_1033 .def_1035))
(define-fun .def_1040 () Bool (and .def_1036 .def_1039))
(define-fun .def_1043 () Bool (and .def_1040 .def_1042))
(define-fun .def_1012 () Bool (<= 0 invalid_me.next))
(define-fun .def_1010 () Bool (not env.next))
(define-fun .def_1013 () Bool (or .def_1010 .def_1012))
(define-fun .def_1014 () Bool (= _OK_.next .def_1013))
(define-fun .def_1044 () Bool (and .def_1014 .def_1043))
(define-fun .def_1048 () Bool (and .def_1044 .def_1047))
(define-fun .def_1052 () Bool (and .def_1048 .def_1051))
(define-fun .def_1056 () Bool (and .def_1052 .def_1055))
(define-fun .def_1059 () Bool (and .def_1056 .def_1058))
(define-fun .def_1062 () Bool (and .def_1059 .def_1061))
(define-fun .def_1092 () Bool (and .def_1062 .def_1091))
(define-fun .def_1118 () Bool (and .def_1092 .def_1117))
(define-fun .def_1120 () Bool (and .def_1118 .def_1119))
(define-fun .def_1122 () Bool (and .def_1120 .def_1121))
(define-fun .def_1124 () Bool (and .def_1122 .def_1123))
(define-fun .def_1126 () Bool (and .def_1124 .def_1125))
(define-fun .def_1140 () Bool (and .def_1126 .def_1139))
(define-fun .def_1142 () Bool (and .def_1140 .def_1141))
(define-fun .def_795 () Bool (= call_Sofar.flby call_Sofar.Sofar))
(define-fun .def_790 () Bool (and param_etat_me4 param_etat_me3))
(define-fun .def_785 () Bool (and param_etat_me1 param_etat_me2))
(define-fun .def_784 () Bool (and param_etat_me3 param_etat_me1))
(define-fun .def_786 () Bool (or .def_784 .def_785))
(define-fun .def_783 () Bool (and param_etat_me4 param_etat_me1))
(define-fun .def_787 () Bool (or .def_783 .def_786))
(define-fun .def_782 () Bool (and param_etat_me3 param_etat_me2))
(define-fun .def_788 () Bool (or .def_782 .def_787))
(define-fun .def_781 () Bool (and param_etat_me4 param_etat_me2))
(define-fun .def_789 () Bool (or .def_781 .def_788))
(define-fun .def_791 () Bool (or .def_789 .def_790))
(define-fun .def_792 () Bool (not .def_791))
(define-fun .def_793 () Bool (= call_excludes4.excludes .def_792))
(define-fun .def_779 () Bool (= call_mesi.flby4 call_mesi.invalid_me))
(define-fun .def_777 () Bool (= call_mesi.flby3 call_mesi.shared_me))
(define-fun .def_775 () Bool (= call_mesi.flby2 call_mesi.exclusive_me))
(define-fun .def_773 () Bool (= call_mesi.flby call_mesi.modified_me))
(define-fun .def_769 () Bool (= call_mesi.ite30 call_mesi.ite31))
(define-fun .def_770 () Bool (or param_etat_me2 .def_769))
(define-fun .def_766 () Bool (= call_mesi.ite31 call_mesi.ite26))
(define-fun .def_748 () Bool (not param_etat_me2))
(define-fun .def_767 () Bool (or .def_748 .def_766))
(define-fun .def_762 () Bool (= call_mesi.ite22 call_mesi.ite23))
(define-fun .def_763 () Bool (or param_etat_me2 .def_762))
(define-fun .def_759 () Bool (= call_mesi.ite23 call_mesi.ite18))
(define-fun .def_760 () Bool (or .def_748 .def_759))
(define-fun .def_755 () Bool (= call_mesi.ite14 call_mesi.ite15))
(define-fun .def_756 () Bool (or param_etat_me2 .def_755))
(define-fun .def_752 () Bool (= call_mesi.ite15 call_mesi.ite10))
(define-fun .def_753 () Bool (or .def_748 .def_752))
(define-fun .def_747 () Bool (= call_mesi.ite7 call_mesi.ite2))
(define-fun .def_749 () Bool (or .def_747 .def_748))
(define-fun .def_743 () Bool (= call_mesi.ite6 call_mesi.ite7))
(define-fun .def_745 () Bool (or .def_743 param_etat_me2))
(define-fun .def_750 () Bool (and .def_745 .def_749))
(define-fun .def_754 () Bool (and .def_750 .def_753))
(define-fun .def_757 () Bool (and .def_754 .def_756))
(define-fun .def_761 () Bool (and .def_757 .def_760))
(define-fun .def_764 () Bool (and .def_761 .def_763))
(define-fun .def_768 () Bool (and .def_764 .def_767))
(define-fun .def_771 () Bool (and .def_768 .def_770))
(define-fun .def_739 () Bool (= call_mesi.ite32 call_mesi.ite31))
(define-fun .def_740 () Bool (or param_etat_me1 .def_739))
(define-fun .def_735 () Bool (= call_mesi.ite25 call_mesi.ite32))
(define-fun .def_713 () Bool (not param_etat_me1))
(define-fun .def_736 () Bool (or .def_713 .def_735))
(define-fun .def_730 () Bool (= call_mesi.ite24 call_mesi.ite23))
(define-fun .def_731 () Bool (or param_etat_me1 .def_730))
(define-fun .def_726 () Bool (= call_mesi.ite17 call_mesi.ite24))
(define-fun .def_727 () Bool (or .def_713 .def_726))
(define-fun .def_721 () Bool (= call_mesi.ite16 call_mesi.ite15))
(define-fun .def_722 () Bool (or param_etat_me1 .def_721))
(define-fun .def_717 () Bool (= call_mesi.ite9 call_mesi.ite16))
(define-fun .def_718 () Bool (or .def_713 .def_717))
(define-fun .def_712 () Bool (= call_mesi.ite call_mesi.ite8))
(define-fun .def_714 () Bool (or .def_712 .def_713))
(define-fun .def_709 () Bool (= call_mesi.ite8 call_mesi.ite7))
(define-fun .def_711 () Bool (or .def_709 param_etat_me1))
(define-fun .def_715 () Bool (and .def_711 .def_714))
(define-fun .def_719 () Bool (and .def_715 .def_718))
(define-fun .def_723 () Bool (and .def_719 .def_722))
(define-fun .def_728 () Bool (and .def_723 .def_727))
(define-fun .def_732 () Bool (and .def_728 .def_731))
(define-fun .def_737 () Bool (and .def_732 .def_736))
(define-fun .def_741 () Bool (and .def_737 .def_740))
(define-fun .def_705 () Bool (= env call_Sofar.Sofar))
(define-fun .def_702 () Bool (= invalid_me call_mesi.invalid_me))
(define-fun .def_699 () Bool (= shared_me call_mesi.shared_me))
(define-fun .def_695 () Bool (= exclusive_me call_mesi.exclusive_me))
(define-fun .def_691 () Bool (= modified_me call_mesi.modified_me))
(define-fun .def_685 () Bool (= call_mesi.ite29 call_mesi.ite30))
(define-fun .def_686 () Bool (or param_etat_me3 .def_685))
(define-fun .def_682 () Bool (= call_mesi.ite27 call_mesi.ite30))
(define-fun .def_663 () Bool (not param_etat_me3))
(define-fun .def_683 () Bool (or .def_663 .def_682))
(define-fun .def_677 () Bool (= call_mesi.ite21 call_mesi.ite22))
(define-fun .def_678 () Bool (or param_etat_me3 .def_677))
(define-fun .def_674 () Bool (= call_mesi.ite19 call_mesi.ite22))
(define-fun .def_675 () Bool (or .def_663 .def_674))
(define-fun .def_670 () Bool (= call_mesi.ite13 call_mesi.ite14))
(define-fun .def_671 () Bool (or param_etat_me3 .def_670))
(define-fun .def_667 () Bool (= call_mesi.ite11 call_mesi.ite14))
(define-fun .def_668 () Bool (or .def_663 .def_667))
(define-fun .def_662 () Bool (= call_mesi.ite3 call_mesi.ite6))
(define-fun .def_664 () Bool (or .def_662 .def_663))
(define-fun .def_659 () Bool (= call_mesi.ite5 call_mesi.ite6))
(define-fun .def_661 () Bool (or .def_659 param_etat_me3))
(define-fun .def_665 () Bool (and .def_661 .def_664))
(define-fun .def_669 () Bool (and .def_665 .def_668))
(define-fun .def_672 () Bool (and .def_669 .def_671))
(define-fun .def_676 () Bool (and .def_672 .def_675))
(define-fun .def_679 () Bool (and .def_676 .def_678))
(define-fun .def_684 () Bool (and .def_679 .def_683))
(define-fun .def_687 () Bool (and .def_684 .def_686))
(define-fun .def_655 () Bool (<= 0 invalid_me))
(define-fun .def_653 () Bool (not env))
(define-fun .def_656 () Bool (or .def_653 .def_655))
(define-fun .def_657 () Bool (= _OK_ .def_656))
(define-fun .def_688 () Bool (and .def_657 .def_687))
(define-fun .def_692 () Bool (and .def_688 .def_691))
(define-fun .def_696 () Bool (and .def_692 .def_695))
(define-fun .def_700 () Bool (and .def_696 .def_699))
(define-fun .def_703 () Bool (and .def_700 .def_702))
(define-fun .def_706 () Bool (and .def_703 .def_705))
(define-fun .def_742 () Bool (and .def_706 .def_741))
(define-fun .def_772 () Bool (and .def_742 .def_771))
(define-fun .def_774 () Bool (and .def_772 .def_773))
(define-fun .def_776 () Bool (and .def_774 .def_775))
(define-fun .def_778 () Bool (and .def_776 .def_777))
(define-fun .def_780 () Bool (and .def_778 .def_779))
(define-fun .def_794 () Bool (and .def_780 .def_793))
(define-fun .def_796 () Bool (and .def_794 .def_795))
(define-fun .def_1143 () Bool (and .def_796 .def_1142))
(define-fun .def_1004 () Bool (and call_Sofar.Sofar call_excludes4.excludes.next))
(define-fun .def_1006 () Bool (= .def_1004 call_Sofar.flby.next))
(define-fun .def_1001 () Bool (= call_mesi.ite32.next call_mesi.flby4.next))
(define-fun .def_997 () Bool (= call_mesi.ite24.next call_mesi.flby3.next))
(define-fun .def_993 () Bool (= call_mesi.ite16.next call_mesi.flby2.next))
(define-fun .def_989 () Bool (= call_mesi.ite8.next call_mesi.flby.next))
(define-fun .def_957 () Bool (<= 1 call_mesi.invalid_me))
(define-fun .def_984 () Bool (= call_mesi.garde_me4.next .def_957))
(define-fun .def_981 () Bool (= call_mesi.ite20.next 0))
(define-fun .def_860 () Bool (not call_mesi.garde_me4.next))
(define-fun .def_982 () Bool (or .def_860 .def_981))
(define-fun .def_978 () Bool (= call_mesi.ite4.next 0))
(define-fun .def_979 () Bool (or .def_860 .def_978))
(define-fun .def_976 () Bool (= call_mesi.ite12.next 1))
(define-fun .def_977 () Bool (or .def_860 .def_976))
(define-fun .def_980 () Bool (and .def_977 .def_979))
(define-fun .def_983 () Bool (and .def_980 .def_982))
(define-fun .def_985 () Bool (and .def_983 .def_984))
(define-fun .def_972 () Bool (<= 1 call_mesi.shared_me))
(define-fun .def_973 () Bool (= call_mesi.garde_me3.next .def_972))
(define-fun .def_969 () Bool (= call_mesi.ite19.next 0))
(define-fun .def_846 () Bool (not call_mesi.garde_me3.next))
(define-fun .def_970 () Bool (or .def_846 .def_969))
(define-fun .def_966 () Bool (= call_mesi.ite3.next 0))
(define-fun .def_967 () Bool (or .def_846 .def_966))
(define-fun .def_964 () Bool (= call_mesi.ite11.next 1))
(define-fun .def_965 () Bool (or .def_846 .def_964))
(define-fun .def_968 () Bool (and .def_965 .def_967))
(define-fun .def_971 () Bool (and .def_968 .def_970))
(define-fun .def_974 () Bool (and .def_971 .def_973))
(define-fun .def_961 () Bool (<= 1 call_mesi.exclusive_me))
(define-fun .def_962 () Bool (= call_mesi.garde_me2.next .def_961))
(define-fun .def_958 () Bool (= call_mesi.garde_me1.next .def_957))
(define-fun .def_954 () Bool (= call_mesi.ite.next 0))
(define-fun .def_832 () Bool (not call_mesi.garde_me1.next))
(define-fun .def_955 () Bool (or .def_832 .def_954))
(define-fun .def_952 () Bool (= call_mesi.ite9.next 0))
(define-fun .def_953 () Bool (or .def_832 .def_952))
(define-fun .def_956 () Bool (and .def_953 .def_955))
(define-fun .def_959 () Bool (and .def_956 .def_958))
(define-fun .def_948 () Bool (= call_mesi.invalid_me call_mesi.ite28.next))
(define-fun .def_949 () Bool (or call_mesi.garde_me4.next .def_948))
(define-fun .def_945 () Bool (= call_mesi.invalid_me call_mesi.ite27.next))
(define-fun .def_946 () Bool (or call_mesi.garde_me3.next .def_945))
(define-fun .def_940 () Bool (= call_mesi.invalid_me call_mesi.ite26.next))
(define-fun .def_943 () Bool (or call_mesi.garde_me2.next .def_940))
(define-fun .def_803 () Bool (not call_mesi.garde_me2.next))
(define-fun .def_941 () Bool (or .def_803 .def_940))
(define-fun .def_934 () Int (* (- 1) call_mesi.ite25.next))
(define-fun .def_935 () Int (+ call_mesi.invalid_me .def_934))
(define-fun .def_936 () Bool (= .def_935 1))
(define-fun .def_937 () Bool (or .def_832 .def_936))
(define-fun .def_932 () Bool (= call_mesi.invalid_me call_mesi.ite25.next))
(define-fun .def_933 () Bool (or call_mesi.garde_me1.next .def_932))
(define-fun .def_938 () Bool (and .def_933 .def_937))
(define-fun .def_942 () Bool (and .def_938 .def_941))
(define-fun .def_944 () Bool (and .def_942 .def_943))
(define-fun .def_947 () Bool (and .def_944 .def_946))
(define-fun .def_950 () Bool (and .def_947 .def_949))
(define-fun .def_927 () Bool (= call_mesi.shared_me call_mesi.ite20.next))
(define-fun .def_928 () Bool (or call_mesi.garde_me4.next .def_927))
(define-fun .def_924 () Bool (= call_mesi.shared_me call_mesi.ite19.next))
(define-fun .def_925 () Bool (or call_mesi.garde_me3.next .def_924))
(define-fun .def_916 () Bool (= call_mesi.shared_me call_mesi.ite18.next))
(define-fun .def_921 () Bool (or call_mesi.garde_me2.next .def_916))
(define-fun .def_918 () Bool (= call_mesi.shared_me call_mesi.ite17.next))
(define-fun .def_919 () Bool (or call_mesi.garde_me1.next .def_918))
(define-fun .def_917 () Bool (or .def_803 .def_916))
(define-fun .def_920 () Bool (and .def_917 .def_919))
(define-fun .def_922 () Bool (and .def_920 .def_921))
(define-fun .def_926 () Bool (and .def_922 .def_925))
(define-fun .def_929 () Bool (and .def_926 .def_928))
(define-fun .def_911 () Bool (= call_mesi.exclusive_me call_mesi.ite12.next))
(define-fun .def_912 () Bool (or call_mesi.garde_me4.next .def_911))
(define-fun .def_908 () Bool (= call_mesi.exclusive_me call_mesi.ite11.next))
(define-fun .def_909 () Bool (or call_mesi.garde_me3.next .def_908))
(define-fun .def_904 () Bool (= call_mesi.exclusive_me call_mesi.ite10.next))
(define-fun .def_905 () Bool (or call_mesi.garde_me2.next .def_904))
(define-fun .def_901 () Bool (= call_mesi.exclusive_me call_mesi.ite9.next))
(define-fun .def_902 () Bool (or call_mesi.garde_me1.next .def_901))
(define-fun .def_896 () Int (* (- 1) call_mesi.ite10.next))
(define-fun .def_897 () Int (+ call_mesi.exclusive_me .def_896))
(define-fun .def_898 () Bool (= .def_897 1))
(define-fun .def_899 () Bool (or .def_803 .def_898))
(define-fun .def_903 () Bool (and .def_899 .def_902))
(define-fun .def_906 () Bool (and .def_903 .def_905))
(define-fun .def_910 () Bool (and .def_906 .def_909))
(define-fun .def_913 () Bool (and .def_910 .def_912))
(define-fun .def_891 () Bool (= call_mesi.invalid_me call_mesi.ite29.next))
(define-fun .def_892 () Bool (or param_etat_me4.next .def_891))
(define-fun .def_888 () Bool (= call_mesi.ite28.next call_mesi.ite29.next))
(define-fun .def_868 () Bool (not param_etat_me4.next))
(define-fun .def_889 () Bool (or .def_868 .def_888))
(define-fun .def_884 () Bool (= call_mesi.shared_me call_mesi.ite21.next))
(define-fun .def_885 () Bool (or param_etat_me4.next .def_884))
(define-fun .def_881 () Bool (= call_mesi.ite20.next call_mesi.ite21.next))
(define-fun .def_882 () Bool (or .def_868 .def_881))
(define-fun .def_876 () Bool (= call_mesi.exclusive_me call_mesi.ite13.next))
(define-fun .def_877 () Bool (or param_etat_me4.next .def_876))
(define-fun .def_873 () Bool (= call_mesi.ite12.next call_mesi.ite13.next))
(define-fun .def_874 () Bool (or .def_868 .def_873))
(define-fun .def_867 () Bool (= call_mesi.ite4.next call_mesi.ite5.next))
(define-fun .def_869 () Bool (or .def_867 .def_868))
(define-fun .def_864 () Bool (= call_mesi.modified_me call_mesi.ite5.next))
(define-fun .def_866 () Bool (or .def_864 param_etat_me4.next))
(define-fun .def_870 () Bool (and .def_866 .def_869))
(define-fun .def_875 () Bool (and .def_870 .def_874))
(define-fun .def_878 () Bool (and .def_875 .def_877))
(define-fun .def_883 () Bool (and .def_878 .def_882))
(define-fun .def_886 () Bool (and .def_883 .def_885))
(define-fun .def_890 () Bool (and .def_886 .def_889))
(define-fun .def_893 () Bool (and .def_890 .def_892))
(define-fun .def_850 () Int (* (- 1) call_mesi.ite28.next))
(define-fun .def_855 () Int (+ call_mesi.invalid_me .def_850))
(define-fun .def_856 () Int (+ call_mesi.shared_me .def_855))
(define-fun .def_857 () Int (+ call_mesi.exclusive_me .def_856))
(define-fun .def_858 () Int (+ call_mesi.modified_me .def_857))
(define-fun .def_859 () Bool (= .def_858 1))
(define-fun .def_861 () Bool (or .def_859 .def_860))
(define-fun .def_836 () Int (* (- 1) call_mesi.ite27.next))
(define-fun .def_841 () Int (+ call_mesi.invalid_me .def_836))
(define-fun .def_842 () Int (+ call_mesi.shared_me .def_841))
(define-fun .def_843 () Int (+ call_mesi.exclusive_me .def_842))
(define-fun .def_844 () Int (+ call_mesi.modified_me .def_843))
(define-fun .def_845 () Bool (= .def_844 1))
(define-fun .def_847 () Bool (or .def_845 .def_846))
(define-fun .def_824 () Int (* (- 1) call_mesi.ite17.next))
(define-fun .def_828 () Int (+ call_mesi.shared_me .def_824))
(define-fun .def_829 () Int (+ call_mesi.exclusive_me .def_828))
(define-fun .def_830 () Int (+ call_mesi.modified_me .def_829))
(define-fun .def_831 () Bool (= .def_830 1))
(define-fun .def_833 () Bool (or .def_831 .def_832))
(define-fun .def_819 () Bool (= call_mesi.modified_me call_mesi.ite4.next))
(define-fun .def_821 () Bool (or .def_819 call_mesi.garde_me4.next))
(define-fun .def_814 () Bool (= call_mesi.modified_me call_mesi.ite3.next))
(define-fun .def_816 () Bool (or .def_814 call_mesi.garde_me3.next))
(define-fun .def_810 () Bool (= call_mesi.modified_me call_mesi.ite2.next))
(define-fun .def_811 () Bool (or call_mesi.garde_me2.next .def_810))
(define-fun .def_806 () Bool (= call_mesi.modified_me call_mesi.ite.next))
(define-fun .def_808 () Bool (or .def_806 call_mesi.garde_me1.next))
(define-fun .def_799 () Int (* (- 1) call_mesi.ite2.next))
(define-fun .def_800 () Int (+ call_mesi.modified_me .def_799))
(define-fun .def_801 () Bool (= .def_800 1))
(define-fun .def_804 () Bool (or .def_801 .def_803))
(define-fun .def_809 () Bool (and .def_804 .def_808))
(define-fun .def_812 () Bool (and .def_809 .def_811))
(define-fun .def_817 () Bool (and .def_812 .def_816))
(define-fun .def_822 () Bool (and .def_817 .def_821))
(define-fun .def_834 () Bool (and .def_822 .def_833))
(define-fun .def_848 () Bool (and .def_834 .def_847))
(define-fun .def_862 () Bool (and .def_848 .def_861))
(define-fun .def_894 () Bool (and .def_862 .def_893))
(define-fun .def_914 () Bool (and .def_894 .def_913))
(define-fun .def_930 () Bool (and .def_914 .def_929))
(define-fun .def_951 () Bool (and .def_930 .def_950))
(define-fun .def_960 () Bool (and .def_951 .def_959))
(define-fun .def_963 () Bool (and .def_960 .def_962))
(define-fun .def_975 () Bool (and .def_963 .def_974))
(define-fun .def_986 () Bool (and .def_975 .def_985))
(define-fun .def_990 () Bool (and .def_986 .def_989))
(define-fun .def_994 () Bool (and .def_990 .def_993))
(define-fun .def_998 () Bool (and .def_994 .def_997))
(define-fun .def_1002 () Bool (and .def_998 .def_1001))
(define-fun .def_1007 () Bool (and .def_1002 .def_1006))
(define-fun .def_1144 () Bool (and .def_1007 .def_1143))
(assert .def_1144)
